Water Network: d13_modena.dat
*******************************************************************************

-------------------------------- Solving with IPOPT --------------------------
min_demand: 0
max_demand: 0.00947
max_flow: 0.4069399999999997
eps: 3.919527346039423e-08 

Ipopt solver outputs: 

Ipopt 3.14.13: outlev = 0
expect_infeasible_problem = yes
tol = 1e-9
bound_relax_factor=0
bound_push = 0.01
bound_frac = 0.01
nlp_scaling_method = none


******************************************************************************
This program contains Ipopt, a library for large-scale nonlinear optimization.
 Ipopt is released as open source code under the Eclipse Public License (EPL).
         For more information visit https://github.com/coin-or/Ipopt
******************************************************************************

 
Ipopt 3.14.13: Optimal Solution Found

suffix ipopt_zU_out OUT;
suffix ipopt_zL_out OUT;
total_cost: 2535304.1451029615 

*******************************************************************************

*******************************************************************************

Constraints violation:


Sum of constraints violation: 9.865959744602074e-12
*******************************************************************************

*******************************************************************************

Constraint 2 violations:


Sum of violation of original con2: 0.0
Sum of violation of approx con2: 2.120525977034049e-14
*******************************************************************************

Absolute and relative violations between original and approximation constraint 2:


Con2 sum of absolute violation: 0.002312313735894211
Con2 sum of relative violation: 2.5025859681318026
*******************************************************************************

Total cost using ipopt: 2535304.1451029615
IPOPT solve time: 153.19 seconds
*******************************************************************************


-------------------------------- Solving with gurobi --------------------------
min_demand: 0
max_demand: 0.00947
max_flow: 0.4069399999999997
eps: 3.919527346039423e-08 

The license for this solver will expire in 2.1 hours.
Gurobi 12.0.1: Set parameter LogToConsole to value 1
  tech:outlev = 1
Set parameter Presolve to value 1
  pre:solve = 1
Set parameter TimeLimit to value 3600
  lim:time = 3600
Set parameter Method to value 2
  alg:method = 2
  alg:start = 1
Set parameter BarConvTol to value 1e-09
  bar:convtol = 1e-09
Set parameter FeasibilityTol to value 1e-05
  alg:feastol = 1e-05
  sol:chk:feastolrel = 0
Set parameter MIPGap to value 1e-09
  mip:gap = 1e-09
Set parameter InfUnbdInfo to value 1
Gurobi Optimizer version 12.0.1 build v12.0.1rc0 (linux64 - "Debian GNU/Linux 11 (bullseye)")

CPU model: Intel(R) Xeon(R) CPU E5-2650 v4 @ 2.20GHz, instruction set [SSE2|AVX|AVX2]
Thread count: 12 physical cores, 12 logical processors, using up to 12 threads

Non-default parameters:
TimeLimit  3600
FeasibilityTol  1e-05
MIPGap  1e-09
Method  2
BarConvTol  1e-09
InfUnbdInfo  1
Presolve  1

Optimize a model with 902 rows, 6925 columns and 5698 nonzeros
Model fingerprint: 0xbdc51115
Model has 317 general nonlinear constraints (9827 nonlinear terms)
Variable types: 6925 continuous, 0 integer (0 binary)
Coefficient statistics:
  Matrix range     [1e+00, 1e+00]
  Objective range  [3e+01, 4e+02]
  Bounds range     [2e-08, 3e+11]
  RHS range        [1e-05, 1e+03]
Warning: Model contains large bounds
         Consider reformulating model or setting NumericFocus parameter
         to avoid numerical issues.

User MIP start produced solution with objective 2.5353e+06 (0.01s)
Loaded user MIP start with objective 2.5353e+06

Presolve model has 317 nlconstr
Added 11095 variables to disaggregate expressions.
Presolve removed 3 rows and 1905 columns
Presolve time: 0.06s
Presolved: 32916 rows, 16116 columns, 83991 nonzeros
Presolved model has 5072 bilinear constraint(s)
Presolved model has 951 nonlinear constraint(s)

Solving non-convex MINLP

Variable types: 16116 continuous, 0 integer (0 binary)
  NLP heuristic elapsed time = 5.08s
  NLP heuristic elapsed time = 10.44s
  NLP heuristic elapsed time = 15.09s
  NLP heuristic elapsed time = 20.14s
  NLP heuristic elapsed time = 26.88s
Root barrier log...

Ordering time: 0.00s

Barrier statistics:
 AA' NZ     : 1.335e+03
 Factor NZ  : 5.191e+03
 Factor Ops : 7.142e+04 (less than 1 second per iteration)
 Threads    : 1

                  Objective                Residual
Iter       Primal          Dual         Primal    Dual     Compl     Time
   0   1.98902961e+06 -4.68437369e+11  3.00e+10 0.00e+00  9.96e+08    44s
   1   1.98902961e+06 -2.91876774e+11  6.41e+09 4.74e-03  3.34e+08    44s
   2   1.98902961e+06 -8.33223366e+09  3.50e+06 2.43e-04  7.20e+06    44s
   3   1.98902961e+06 -5.83820860e+06  3.12e+03 6.77e-07  7.19e+03    44s
   4   1.98902961e+06  1.98084565e+06  2.86e-01 8.35e-10  7.17e+00    44s
   5   1.98902961e+06  1.98902072e+06  7.63e-06 3.90e-13  7.66e-03    44s
   6   1.98902961e+06  1.98902960e+06  3.81e-06 3.98e-16  7.66e-06    44s
   7   1.98902961e+06  1.98902961e+06  3.81e-06 2.52e-18  7.66e-09    44s
   8   1.98902961e+06  1.98902961e+06  3.81e-06 2.63e-18  7.66e-12    44s
   9   1.98902961e+06  1.98902961e+06  3.81e-06 2.55e-18  7.66e-18    44s
  10   1.98902961e+06  1.98902961e+06  3.81e-06 2.46e-18  6.09e-21    44s
  11   1.98902961e+06 -4.68437369e+11  3.00e+10 0.00e+00  9.96e+08    44s
  12   1.98902961e+06 -1.15407658e+11  3.16e+09 2.34e-02  1.88e+08    44s
  13   1.98902961e+06 -4.57024282e+09  8.28e+06 3.68e-03  5.52e+06    44s
  14   1.98902961e+06 -1.87863032e+08  3.47e+05 1.58e-04  2.33e+05    44s
  15   1.98902961e+06 -7.21226001e+06  1.71e+04 7.95e-06  1.15e+04    44s
  16   1.98902961e+06  1.53976546e+06  8.53e+02 4.02e-07  5.74e+02    44s
  17   1.98902961e+06  1.98894815e+06  3.72e-01 3.99e-10  1.14e-01    44s
  18   1.98902961e+06  1.98902215e+06  3.40e-02 3.79e-11  1.12e-02    44s
  19   1.98902961e+06  1.98902951e+06  3.93e-04 5.16e-13  1.51e-04    44s
  20   1.98902961e+06  1.98902961e+06  6.59e-06 6.07e-15  1.84e-06    44s
  21   1.98902961e+06  1.98902961e+06  6.59e-06 7.35e-17  2.24e-08    44s
  22   1.98902961e+06  1.98902961e+06  6.59e-06 2.77e-18  2.73e-10    44s
  23   1.98902961e+06  1.98902961e+06  6.59e-06 1.90e-18  3.32e-12    44s
  24   1.98902961e+06  1.98902961e+06  6.59e-06 1.94e-18  4.04e-14    44s
  25   1.98902961e+06  1.98902961e+06  6.59e-06 2.01e-18  4.91e-19    44s
  26   1.98902961e+06  1.98902961e+06  6.59e-06 2.43e-18  5.02e-21    44s
  27   1.98902961e+06  1.98902961e+06  6.59e-06 1.19e-18  5.02e-21    44s
  28   1.98902961e+06  1.98902961e+06  6.59e-06 1.23e-18  5.02e-21    44s

Barrier solved model in 28 iterations and 43.71 seconds (0.73 work units)
Optimal objective 1.98902961e+06


Root crossover log...

      72 DPushes remaining with DInf 0.0000000e+00                44s
Warning: Markowitz tolerance tightened to 0.5

     374 PPushes remaining with PInf 0.0000000e+00                44s
       0 PPushes remaining with PInf 0.0000000e+00                44s

  Push phase complete: Pinf 0.0000000e+00, Dinf 0.0000000e+00     44s


Root simplex log...

Iteration    Objective       Primal Inf.    Dual Inf.      Time
     377    1.9890296e+06   0.000000e+00   0.000000e+00     44s
     694    1.9890296e+06   0.000000e+00   0.000000e+00     44s
Extra simplex iterations after uncrush: 317

Root relaxation: objective 1.989030e+06, 694 iterations, 1.13 seconds (0.04 work units)

    Nodes    |    Current Node    |     Objective Bounds      |     Work
 Expl Unexpl |  Obj  Depth IntInf | Incumbent    BestBd   Gap | It/Node Time

     0     0 1989029.61    0 1551 2535304.15 1989029.61  21.5%     -   44s
     0     0 1989029.61    0 1540 2535304.15 1989029.61  21.5%     -   45s
     0     0 1989029.61    0 1537 2535304.15 1989029.61  21.5%     -   46s
     0     0 1989029.61    0 1523 2535304.15 1989029.61  21.5%     -   47s
     0     0 1989029.61    0 1506 2535304.15 1989029.61  21.5%     -   48s
     0     0 1989029.61    0 1502 2535304.15 1989029.61  21.5%     -   49s
     0     0 1989029.61    0 1502 2535304.15 1989029.61  21.5%     -   50s
     0     0 1989029.61    0 1429 2535304.15 1989029.61  21.5%     -  113s
  NLP heuristic elapsed time = 5.03s
  NLP heuristic elapsed time = 10.01s
  NLP heuristic elapsed time = 15.18s
  NLP heuristic elapsed time = 20.34s
     0     2 1989029.61    0 1429 2535304.15 1989029.61  21.5%     - 1210s
     1     5 1989029.61    1 1378 2535304.15 1989029.61  21.5%   117 1275s
     3     6 1989029.61    2 1378 2535304.15 1989029.61  21.5%  49.3 1330s
     7    12 1989029.61    3 1367 2535304.15 1989029.61  21.5%  36.6 1401s
    13    24 1989029.61    4 1357 2535304.15 1989029.61  21.5%  66.1 1464s
    25    57 1989029.61    5 1357 2535304.15 1989029.61  21.5%  82.4 1641s
    58   117 1989029.61    7 1360 2535304.15 1989029.61  21.5%   102 1941s
   118   225 1989029.61    9 1359 2535304.15 1989029.61  21.5%   108 2442s
   226   439 1989029.61   14 1431 2535304.15 1989029.61  21.5%  90.5 3189s
   446  1072 1989029.61   23 1418 2535304.15 1989029.61  21.5%  88.4 3506s
  1089  3892 1989029.61   44 1382 2535304.15 1989029.61  21.5%   160 3592s
  4389  4510 1989043.00  173 1375 2535304.15 1989029.61  21.5%   365 3600s

Cutting planes:
  RLT: 134

Explored 5339 nodes (1863361 simplex iterations) in 3600.05 seconds (289.73 work units)
Thread count was 12 (of 12 available processors)

Solution count 1: 2.5353e+06 

Time limit reached
Best objective 2.535304145103e+06, best bound 1.989029607100e+06, gap 21.5467%
Gurobi 12.0.1: time limit, feasible solution; objective 2535304.145
1.86336e+06 simplex iterations
28 barrier iterations
5339 branching nodes
absmipgap=546275, relmipgap=0.215467
*******************************************************************************

Constraints violation:


Sum of constraints violation: 1.2274306114453044e-11
*******************************************************************************

*******************************************************************************

Constraint 2 violations:


Sum of violation of original con2: 0.0
Sum of violation of approx con2: 2.120525977034049e-14
*******************************************************************************

Absolute and relative violations between original and approximation constraint 2:


Con2 sum of absolute violation: 0.0023123137358930686
Con2 sum of relative violation: 2.5025859681318003
*******************************************************************************

Total cost using gurobi: 2535304.1451029615
gurobi solve time: 3600.33 seconds
*******************************************************************************

